Gurobi Optimizer version 9.1.2 build v9.1.2rc0 (linux64)
Thread count: 36 physical cores, 72 logical processors, using up to 32 threads
Optimize a model with 12 rows, 57 columns and 590 nonzeros
Model fingerprint: 0xf32eec78
Model has 47 quadratic constraints
Coefficient statistics:
  Matrix range     [2e-05, 3e+00]
  QMatrix range    [1e+00, 1e+00]
  QLMatrix range   [1e+00, 1e+00]
  Objective range  [8e-03, 7e-01]
  Bounds range     [1e+00, 1e+00]
  RHS range        [1e+00, 1e+00]
Presolve removed 9 rows and 0 columns

Continuous model is non-convex -- solving as a MIP.

Presolve removed 9 rows and 0 columns
Presolve time: 0.00s
Presolved: 189 rows, 57 columns, 443 nonzeros
Presolved model has 47 bilinear constraint(s)
Variable types: 57 continuous, 0 integer (0 binary)

Root relaxation: objective -1.743721e+00, 44 iterations, 0.00 seconds

    Nodes    |    Current Node    |     Objective Bounds      |     Work
 Expl Unexpl |  Obj  Depth IntInf | Incumbent    BestBd   Gap | It/Node Time

     0     0   -1.74372    0   38          -   -1.74372      -     -    0s
H    0     0                       0.6147548   -1.74372   384%     -    0s
     0     0   -1.64739    0    1    0.61475   -1.64739   368%     -    0s
H    0     0                      -1.6450460   -1.64739  0.14%     -    0s
     0     0     cutoff    0        -1.64505   -1.64505  0.00%     -    0s

Cutting planes:
  RLT: 25
  BQP: 3

Explored 1 nodes (76 simplex iterations) in 0.01 seconds
Thread count was 32 (of 72 available processors)

Solution count 2: -1.64505 0.614755 
No other solutions better than -1.64505

Optimal solution found (tolerance 1.00e-04)
Best objective -1.645045978473e+00, best bound -1.645045978473e+00, gap 0.0000%

User-callback calls 78, time in user-callback 0.00 sec
Gurobi Optimizer version 9.1.2 build v9.1.2rc0 (linux64)
Thread count: 36 physical cores, 72 logical processors, using up to 32 threads
Optimize a model with 60 rows, 312 columns and 16100 nonzeros
Model fingerprint: 0x7006f9d1
Model has 262 quadratic constraints
Coefficient statistics:
  Matrix range     [4e-07, 7e+00]
  QMatrix range    [1e+00, 1e+00]
  QLMatrix range   [1e+00, 1e+00]
  Objective range  [4e-03, 1e+00]
  Bounds range     [1e+00, 1e+00]
  RHS range        [1e+00, 1e+00]
Presolve removed 14 rows and 0 columns

Continuous model is non-convex -- solving as a MIP.

Presolve removed 14 rows and 0 columns
Presolve time: 0.01s
Presolved: 1082 rows, 312 columns, 13760 nonzeros
Presolved model has 262 bilinear constraint(s)
Variable types: 312 continuous, 0 integer (0 binary)

Root relaxation: objective -2.164055e+01, 315 iterations, 0.02 seconds

    Nodes    |    Current Node    |     Objective Bounds      |     Work
 Expl Unexpl |  Obj  Depth IntInf | Incumbent    BestBd   Gap | It/Node Time

     0     0  -21.64055    0  182          -  -21.64055      -     -    0s
     0     0  -20.91771    0   29          -  -20.91771      -     -    0s
     0     0  -20.88139    0   29          -  -20.88139      -     -    0s
     0     0  -20.85775    0   50          -  -20.85775      -     -    0s
     0     0  -20.85293    0   60          -  -20.85293      -     -    0s
     0     0  -20.85131    0   60          -  -20.85131      -     -    0s
     0     2  -20.85131    0   60          -  -20.85131      -     -    0s
* 2381  1975              47     -20.0691144  -20.42663  1.78%  32.0    1s
* 2800  1860              53     -20.1024921  -20.36987  1.33%  31.2    1s
* 3079  1929              47     -20.1322864  -20.36987  1.18%  31.0    1s
* 3117  1929              62     -20.1416335  -20.36987  1.13%  31.0    1s
* 3206  1888              75     -20.1789600  -20.36987  0.95%  30.9    1s
* 3207  1888              75     -20.1790111  -20.36987  0.95%  30.9    1s
* 4613   535              63     -20.1797552  -20.36987  0.94%  33.8    2s
* 4615   509              64     -20.1797572  -20.36987  0.94%  33.8    2s
* 4718   495              51     -20.1940922  -20.36987  0.87%  33.6    2s
* 4721   488              52     -20.1940936  -20.36987  0.87%  33.6    2s
* 5211   704              71     -20.2107701  -20.36987  0.79%  32.5    2s
* 5524   821              51     -20.2266451  -20.36987  0.71%  31.6    2s
* 5663   808              64     -20.2369881  -20.36987  0.66%  31.3    3s
* 5835   793              63     -20.2369881  -20.36987  0.66%  30.9    3s
* 6878  1061              50     -20.2370215  -20.36987  0.66%  28.7    3s
* 6879  1061              50     -20.2370342  -20.36987  0.66%  28.7    3s
* 7046  1114              46     -20.2372339  -20.36987  0.66%  28.4    3s
* 7889  1538              68     -20.2375030  -20.30164  0.32%  26.7    3s
* 7892  1538              68     -20.2375035  -20.30164  0.32%  26.7    3s
* 7896  1538              68     -20.2375895  -20.30164  0.32%  26.6    3s
* 7898  1538              69     -20.2375983  -20.30164  0.32%  26.6    3s
* 7979  1538              61     -20.2413807  -20.30164  0.30%  26.5    3s
* 8667  1676              75     -20.2437295  -20.28494  0.20%  25.3    3s
* 8973  1701              68     -20.2454193  -20.28494  0.20%  24.7    3s
* 9020  1666              62     -20.2455867  -20.26804  0.11%  24.7    3s
* 9023  1666              64     -20.2455906  -20.26804  0.11%  24.7    3s
* 9025  1666              65     -20.2455943  -20.26804  0.11%  24.6    3s
* 9339  1667              63     -20.2458668  -20.26538  0.10%  24.3    3s
*10140  1690              62     -20.2458713  -20.25637  0.05%  23.5    4s
*10141  1690              62     -20.2458714  -20.25637  0.05%  23.5    4s
*10335  1681              66     -20.2458920  -20.25504  0.05%  23.3    4s
*10336  1681              66     -20.2459021  -20.25504  0.05%  23.3    4s
*10388  1681              61     -20.2459138  -20.25504  0.05%  23.2    4s
*10449  1681              61     -20.2459701  -20.25504  0.04%  23.2    4s
*10663  1655              61     -20.2461837  -20.25411  0.04%  23.0    4s
*10669  1655              62     -20.2461844  -20.25411  0.04%  23.0    4s
*10672  1655              62     -20.2461847  -20.25411  0.04%  23.0    4s
*11050  1604              60     -20.2461911  -20.25353  0.04%  22.7    4s
*11051  1604              60     -20.2461914  -20.25353  0.04%  22.7    4s
*11138  1604              57     -20.2462758  -20.25353  0.04%  22.6    4s
*11178  1604              65     -20.2463585  -20.25353  0.04%  22.6    4s
*11574  1589              54     -20.2463758  -20.25353  0.04%  22.0    4s
*11884  1589              62     -20.2464382  -20.25353  0.04%  21.6    4s
*11913  1589              65     -20.2466707  -20.25353  0.03%  21.6    4s
*11938  1614              59     -20.2469798  -20.25125  0.02%  21.5    4s
*12124  1614              64     -20.2469940  -20.25125  0.02%  21.3    4s
*12627   965              62     -20.2469945  -20.24939  0.01%  20.6    4s
*13353   965              61     -20.2470005  -20.24939  0.01%  19.6    4s
*13415   965              61     -20.2470006  -20.24939  0.01%  19.5    4s
*13950   646              63     -20.2470013  -20.24829  0.01%  18.9    4s

Explored 14114 nodes (263677 simplex iterations) in 4.72 seconds
Thread count was 32 (of 72 available processors)

Solution count 10: -20.247 -20.247 -20.247 ... -20.2463

Optimal solution found (tolerance 1.00e-04)
Best objective -2.024700130400e+01, best bound -2.024829103097e+01, gap 0.0064%

User-callback calls 29008, time in user-callback 0.01 sec



objective value: -20.247001303996427
objective bound: -20.248291030967046
x_opt: [0.9690817074681476, 1.0, 0.0, 0.313519751035273, 0.0, 0.0, 1.0, 0.0, 0.0, 0.0, 1.0, 0.0, 1.0, 1.0, 0.06321647364610246, 1.0, 0.0, 1.0, 0.0, 0.0, 1.0, 0.7326710959023084, 0.0, 0.844619059035688, 0.0, 0.8719945822468487, 0.0, 1.0, 0.0, 0.0, 1.0, 0.9125977599770587, 0.0, 0.36970351939880125, 1.0, 1.0, 0.051410417395855265, 1.0, 0.0, 0.7884719354331905, 1.0, 0.0, 1.0, 0.0, 0.0, 0.07903837138666131, 0.9470918570412903, 0.0, 1.0, 0.1901777566458452]
GUROBI solution time: 4.715595006942749




